Maximize
F - ff - gg

Subject to
F - f1 - f2 - f3 - f4 = 0
f1 - 30X17 - 30X23 - 10X67 - 10X164 - 40X217 - 40X218 = 0
f2 - 15.0Y17 - 15.0Y23 - 5.0Y67 - 5.0Y164 - 20.0Y217 - 20.0Y218 = 0
f3 = 0
f4 = 0

ff - 0.013373s17 - 0.013373s23 - 0.013373s67 - 0.013373s164 - 0.013373s217 - 0.013373s218 
- 0.013373t17 - 0.013373t23 - 0.013373t67 - 0.013373t164 - 0.013373t217 - 0.013373t218 


= 0
gg - 2.357112Y17 - 2.389828Y23 - 2.205003Y67 - 2.367006Y164 - 2.490952Y217 - 2.291180Y218 

= 0

n1 - X17 - X23 - X67 - X164 - X217 - X218 = 0
n2 - Y17 - Y23 - Y67 - Y164 - Y217 - Y218 = 0
n3 = 0
n4 = 0

X17 + Y17 <= 1
X23 + Y23 <= 1
X67 + Y67 <= 1
X164 + Y164 <= 1
X217 + Y217 <= 1
X218 + Y218 <= 1




x16x17x1 + x16x67x1 + x16x164x1 + x16x217x1 
+ y16y17y1 + y16y67y1 + y16y164y1 + y16y217y1 
<= 1

x241x17x1 + x241x67x1 + x241x164x1 + x241x217x1 
+ y241y17y1 + y241y67y1 + y241y164y1 + y241y217y1 
<= 1
x69x17x1 + x69x67x1 + x69x164x1 + x69x217x1 
+ y69y17y1 + y69y67y1 + y69y164y1 + y69y217y1 
<= 1
x50x17x1 + x50x67x1 + x50x164x1 + x50x217x1 
+ y50y17y1 + y50y67y1 + y50y164y1 + y50y217y1 
<= 1
x185x17x1 + x185x67x1 + x185x164x1 + x185x217x1 
+ y185y17y1 + y185y67y1 + y185y164y1 + y185y217y1 
<= 1
x225x17x1 + x225x67x1 + x225x164x1 + x225x217x1 
+ y225y17y1 + y225y67y1 + y225y164y1 + y225y217y1 
<= 1
x74x17x1 + x74x67x1 + x74x164x1 + x74x217x1 
+ y74y17y1 + y74y67y1 + y74y164y1 + y74y217y1 
<= 1
x2x17x1 + x2x67x1 + x2x164x1 + x2x217x1 
+ y2y17y1 + y2y67y1 + y2y164y1 + y2y217y1 
<= 1


x139x17x1 + x139x67x1 + x139x164x1 + x139x217x1 
+ y139y17y1 + y139y67y1 + y139y164y1 + y139y217y1 
<= 1




x241x17x2 + x241x67x2 + x241x218x2 
+ y241y17y2 + y241y67y2 + y241y218y2 
<= 1

x50x17x2 + x50x67x2 + x50x218x2 
+ y50y17y2 + y50y67y2 + y50y218y2 
<= 1
x185x17x2 + x185x67x2 + x185x218x2 
+ y185y17y2 + y185y67y2 + y185y218y2 
<= 1
x225x17x2 + x225x67x2 + x225x218x2 
+ y225y17y2 + y225y67y2 + y225y218y2 
<= 1
x74x17x2 + x74x67x2 + x74x218x2 
+ y74y17y2 + y74y67y2 + y74y218y2 
<= 1

x43x17x2 + x43x67x2 + x43x218x2 
+ y43y17y2 + y43y67y2 + y43y218y2 
<= 2

x139x17x2 + x139x67x2 + x139x218x2 
+ y139y17y2 + y139y67y2 + y139y218y2 
<= 1
x124x17x2 + x124x67x2 + x124x218x2 
+ y124y17y2 + y124y67y2 + y124y218y2 
<= 1
x132x23x3 + x132x217x3 
+ y132y23y3 + y132y217y3 
<= 2
x16x23x3 + x16x217x3 
+ y16y23y3 + y16y217y3 
<= 1
x35x23x3 + x35x217x3 
+ y35y23y3 + y35y217y3 
<= 2

x69x23x3 + x69x217x3 
+ y69y23y3 + y69y217y3 
<= 1






x160x23x3 + x160x217x3 
+ y160y23y3 + y160y217y3 
<= 2

x124x23x3 + x124x217x3 
+ y124y23y3 + y124y217y3 
<= 1

x16x17x1 + x16x67x1 + x16x164x1 + x16x217x1 

<= 1

x241x17x1 + x241x67x1 + x241x164x1 + x241x217x1 

<= 1
x69x17x1 + x69x67x1 + x69x164x1 + x69x217x1 

<= 1
x50x17x1 + x50x67x1 + x50x164x1 + x50x217x1 

<= 1
x185x17x1 + x185x67x1 + x185x164x1 + x185x217x1 

<= 1
x225x17x1 + x225x67x1 + x225x164x1 + x225x217x1 

<= 1
x74x17x1 + x74x67x1 + x74x164x1 + x74x217x1 

<= 1
x2x17x1 + x2x67x1 + x2x164x1 + x2x217x1 

<= 1


x139x17x1 + x139x67x1 + x139x164x1 + x139x217x1 

<= 1




x241x17x2 + x241x67x2 + x241x218x2 

<= 1

x50x17x2 + x50x67x2 + x50x218x2 

<= 1
x185x17x2 + x185x67x2 + x185x218x2 

<= 1
x225x17x2 + x225x67x2 + x225x218x2 

<= 1
x74x17x2 + x74x67x2 + x74x218x2 

<= 1

x43x17x2 + x43x67x2 + x43x218x2 

<= 2

x139x17x2 + x139x67x2 + x139x218x2 

<= 1
x124x17x2 + x124x67x2 + x124x218x2 

<= 1
x132x23x3 + x132x217x3 

<= 2
x16x23x3 + x16x217x3 

<= 1
x35x23x3 + x35x217x3 

<= 2

x69x23x3 + x69x217x3 

<= 1






x160x23x3 + x160x217x3 

<= 2

x124x23x3 + x124x217x3 

<= 1

x16x17x1 + x16x67x1 + x16x164x1 + x16x217x1 

<= 1

x241x17x1 + x241x67x1 + x241x164x1 + x241x217x1 

<= 1
x69x17x1 + x69x67x1 + x69x164x1 + x69x217x1 

<= 1
x50x17x1 + x50x67x1 + x50x164x1 + x50x217x1 

<= 1
x185x17x1 + x185x67x1 + x185x164x1 + x185x217x1 

<= 1
x225x17x1 + x225x67x1 + x225x164x1 + x225x217x1 

<= 1
x74x17x1 + x74x67x1 + x74x164x1 + x74x217x1 

<= 1
x2x17x1 + x2x67x1 + x2x164x1 + x2x217x1 

<= 1


x139x17x1 + x139x67x1 + x139x164x1 + x139x217x1 

<= 1




x241x17x2 + x241x67x2 + x241x218x2 

<= 1

x50x17x2 + x50x67x2 + x50x218x2 

<= 1
x185x17x2 + x185x67x2 + x185x218x2 

<= 1
x225x17x2 + x225x67x2 + x225x218x2 

<= 1
x74x17x2 + x74x67x2 + x74x218x2 

<= 1

x43x17x2 + x43x67x2 + x43x218x2 

<= 2

x139x17x2 + x139x67x2 + x139x218x2 

<= 1
x124x17x2 + x124x67x2 + x124x218x2 

<= 1
x132x23x3 + x132x217x3 

<= 2
x16x23x3 + x16x217x3 

<= 1
x35x23x3 + x35x217x3 

<= 2

x69x23x3 + x69x217x3 

<= 1






x160x23x3 + x160x217x3 

<= 2

x124x23x3 + x124x217x3 

<= 1
x16x17x1 + x241x17x1 + x69x17x1 + x50x17x1 + x185x17x1 + x225x17x1 + x74x17x1 + x2x17x1 + x139x17x1 + x164x17x1 + x217x17x1 
+ y16y17y1 + y241y17y1 + y69y17y1 + y50y17y1 + y185y17y1 + y225y17y1 + y74y17y1 + y2y17y1 + y139y17y1 + y164y17y1 + y217y17y1 
= 0
x241x17x2 + x50x17x2 + x185x17x2 + x225x17x2 + x74x17x2 + x43x17x2 + x139x17x2 + x124x17x2 
+ y241y17y2 + y50y17y2 + y185y17y2 + y225y17y2 + y74y17y2 + y43y17y2 + y139y17y2 + y124y17y2 
= 0

x132x23x3 + x16x23x3 + x35x23x3 + x69x23x3 + x160x23x3 + x124x23x3 
+ y132y23y3 + y16y23y3 + y35y23y3 + y69y23y3 + y160y23y3 + y124y23y3 
= 0

x16x67x1 + x241x67x1 + x69x67x1 + x50x67x1 + x185x67x1 + x225x67x1 + x74x67x1 + x2x67x1 + x139x67x1 + x164x67x1 + x217x67x1 
+ y16y67y1 + y241y67y1 + y69y67y1 + y50y67y1 + y185y67y1 + y225y67y1 + y74y67y1 + y2y67y1 + y139y67y1 + y164y67y1 + y217y67y1 
= 0
x241x67x2 + x50x67x2 + x185x67x2 + x225x67x2 + x74x67x2 + x43x67x2 + x139x67x2 + x124x67x2 + x218x67x2 
+ y241y67y2 + y50y67y2 + y185y67y2 + y225y67y2 + y74y67y2 + y43y67y2 + y139y67y2 + y124y67y2 + y218y67y2 
= 0

x16x164x1 + x241x164x1 + x69x164x1 + x50x164x1 + x185x164x1 + x225x164x1 + x74x164x1 + x2x164x1 + x139x164x1 
+ y16y164y1 + y241y164y1 + y69y164y1 + y50y164y1 + y185y164y1 + y225y164y1 + y74y164y1 + y2y164y1 + y139y164y1 
- x164x17x1 - x164x67x1 
- y164y17y1 - y164y67y1 - y164y0y1
= 0

x16x217x1 + x241x217x1 + x69x217x1 + x50x217x1 + x185x217x1 + x225x217x1 + x74x217x1 + x2x217x1 + x139x217x1 
+ y16y217y1 + y241y217y1 + y69y217y1 + y50y217y1 + y185y217y1 + y225y217y1 + y74y217y1 + y2y217y1 + y139y217y1 
- x217x17x1 - x217x67x1 
- y217y17y1 - y217y67y1 - y217y0y1
= 0
x132x217x3 + x16x217x3 + x35x217x3 + x69x217x3 + x160x217x3 + x124x217x3 
+ y132y217y3 + y16y217y3 + y35y217y3 + y69y217y3 + y160y217y3 + y124y217y3 
= 0

x241x218x2 + x50x218x2 + x185x218x2 + x225x218x2 + x74x218x2 + x43x218x2 + x139x218x2 + x124x218x2 
+ y241y218y2 + y50y218y2 + y185y218y2 + y225y218y2 + y74y218y2 + y43y218y2 + y139y218y2 + y124y218y2 
- x218x67x2 
- y218y67y2 - y218y0y2
= 0


x16x17x1 + x241x17x1 + x69x17x1 + x50x17x1 + x185x17x1 + x225x17x1 + x74x17x1 + x2x17x1 + x139x17x1 + x164x17x1 + x217x17x1 
= 0
x241x17x2 + x50x17x2 + x185x17x2 + x225x17x2 + x74x17x2 + x43x17x2 + x139x17x2 + x124x17x2 
= 0

x132x23x3 + x16x23x3 + x35x23x3 + x69x23x3 + x160x23x3 + x124x23x3 
= 0

x16x67x1 + x241x67x1 + x69x67x1 + x50x67x1 + x185x67x1 + x225x67x1 + x74x67x1 + x2x67x1 + x139x67x1 + x164x67x1 + x217x67x1 
= 0
x241x67x2 + x50x67x2 + x185x67x2 + x225x67x2 + x74x67x2 + x43x67x2 + x139x67x2 + x124x67x2 + x218x67x2 
= 0

x16x164x1 + x241x164x1 + x69x164x1 + x50x164x1 + x185x164x1 + x225x164x1 + x74x164x1 + x2x164x1 + x139x164x1 
- x164x17x1 - x164x67x1 
= 0

x16x217x1 + x241x217x1 + x69x217x1 + x50x217x1 + x185x217x1 + x225x217x1 + x74x217x1 + x2x217x1 + x139x217x1 
- x217x17x1 - x217x67x1 
= 0
x132x217x3 + x16x217x3 + x35x217x3 + x69x217x3 + x160x217x3 + x124x217x3 
= 0

x241x218x2 + x50x218x2 + x185x218x2 + x225x218x2 + x74x218x2 + x43x218x2 + x139x218x2 + x124x218x2 
- x218x67x2 
= 0


x16x17x1 + x241x17x1 + x69x17x1 + x50x17x1 + x185x17x1 + x225x17x1 + x74x17x1 + x2x17x1 + x139x17x1 + x164x17x1 + x217x17x1 
= 0
x241x17x2 + x50x17x2 + x185x17x2 + x225x17x2 + x74x17x2 + x43x17x2 + x139x17x2 + x124x17x2 
= 0

x132x23x3 + x16x23x3 + x35x23x3 + x69x23x3 + x160x23x3 + x124x23x3 
= 0

x16x67x1 + x241x67x1 + x69x67x1 + x50x67x1 + x185x67x1 + x225x67x1 + x74x67x1 + x2x67x1 + x139x67x1 + x164x67x1 + x217x67x1 
= 0
x241x67x2 + x50x67x2 + x185x67x2 + x225x67x2 + x74x67x2 + x43x67x2 + x139x67x2 + x124x67x2 + x218x67x2 
= 0

x16x164x1 + x241x164x1 + x69x164x1 + x50x164x1 + x185x164x1 + x225x164x1 + x74x164x1 + x2x164x1 + x139x164x1 
- x164x17x1 - x164x67x1 
= 0

x16x217x1 + x241x217x1 + x69x217x1 + x50x217x1 + x185x217x1 + x225x217x1 + x74x217x1 + x2x217x1 + x139x217x1 
- x217x17x1 - x217x67x1 
= 0
x132x217x3 + x16x217x3 + x35x217x3 + x69x217x3 + x160x217x3 + x124x217x3 
= 0

x241x218x2 + x50x218x2 + x185x218x2 + x225x218x2 + x74x218x2 + x43x218x2 + x139x218x2 + x124x218x2 
- x218x67x2 
= 0


1X17 - x16x17x1 - x241x17x1 - x69x17x1 - x50x17x1 - x185x17x1 - x225x17x1 - x74x17x1 - x2x17x1 - x139x17x1 - x164x17x1 - x217x17x1 = 0
1X17 - x241x17x2 - x50x17x2 - x185x17x2 - x225x17x2 - x74x17x2 - x43x17x2 - x139x17x2 - x124x17x2 = 0
2X23 - x132x23x3 - x16x23x3 - x35x23x3 - x69x23x3 - x160x23x3 - x124x23x3 = 0
1X67 - x16x67x1 - x241x67x1 - x69x67x1 - x50x67x1 - x185x67x1 - x225x67x1 - x74x67x1 - x2x67x1 - x139x67x1 - x164x67x1 - x217x67x1 = 0
1X67 - x241x67x2 - x50x67x2 - x185x67x2 - x225x67x2 - x74x67x2 - x43x67x2 - x139x67x2 - x124x67x2 - x218x67x2 = 0
2X164 - x16x164x1 - x241x164x1 - x69x164x1 - x50x164x1 - x185x164x1 - x225x164x1 - x74x164x1 - x2x164x1 - x139x164x1 = 0
1X217 - x16x217x1 - x241x217x1 - x69x217x1 - x50x217x1 - x185x217x1 - x225x217x1 - x74x217x1 - x2x217x1 - x139x217x1 = 0
1X217 - x132x217x3 - x16x217x3 - x35x217x3 - x69x217x3 - x160x217x3 - x124x217x3 = 0
2X218 - x241x218x2 - x50x218x2 - x185x218x2 - x225x218x2 - x74x218x2 - x43x218x2 - x139x218x2 - x124x218x2 = 0

1Y17 - y16y17y1 - y241y17y1 - y69y17y1 - y50y17y1 - y185y17y1 - y225y17y1 - y74y17y1 - y2y17y1 - y139y17y1 - y164y17y1 - y217y17y1 = 0
1Y17 - y241y17y2 - y50y17y2 - y185y17y2 - y225y17y2 - y74y17y2 - y43y17y2 - y139y17y2 - y124y17y2 = 0
2Y23 - y132y23y3 - y16y23y3 - y35y23y3 - y69y23y3 - y160y23y3 - y124y23y3 = 0
1Y67 - y16y67y1 - y241y67y1 - y69y67y1 - y50y67y1 - y185y67y1 - y225y67y1 - y74y67y1 - y2y67y1 - y139y67y1 - y164y67y1 - y217y67y1 = 0
1Y67 - y241y67y2 - y50y67y2 - y185y67y2 - y225y67y2 - y74y67y2 - y43y67y2 - y139y67y2 - y124y67y2 - y218y67y2 = 0
2Y164 - y16y164y1 - y241y164y1 - y69y164y1 - y50y164y1 - y185y164y1 - y225y164y1 - y74y164y1 - y2y164y1 - y139y164y1 = 0
1Y217 - y16y217y1 - y241y217y1 - y69y217y1 - y50y217y1 - y185y217y1 - y225y217y1 - y74y217y1 - y2y217y1 - y139y217y1 = 0
1Y217 - y132y217y3 - y16y217y3 - y35y217y3 - y69y217y3 - y160y217y3 - y124y217y3 = 0
2Y218 - y241y218y2 - y50y218y2 - y185y218y2 - y225y218y2 - y74y218y2 - y43y218y2 - y139y218y2 - y124y218y2 = 0




s132 - s23 + 6.226852a132a23a3 <= 5.08
s132 - s217 + 6.212468a132a217a3 <= 5.08
s16 - s17 + 6.236855a16a17a1 <= 5.08
s16 - s23 + 6.243136a16a23a3 <= 5.08
s16 - s67 + 6.262756a16a67a1 <= 5.08
s16 - s164 + 6.260297a16a164a1 <= 5.08
s16 - s217 + 6.231199a16a217a1 <= 5.08
s16 - s217 + 6.231199a16a217a3 <= 5.08
s35 - s23 + 6.442950a35a23a3 <= 5.31
s35 - s217 + 6.429766a35a217a3 <= 5.31
s241 - s17 + 6.538690a241a17a1 <= 5.39
s241 - s17 + 6.538690a241a17a2 <= 5.39
s241 - s67 + 6.562672a241a67a1 <= 5.39
s241 - s67 + 6.562672a241a67a2 <= 5.39
s241 - s164 + 6.561659a241a164a1 <= 5.39
s241 - s217 + 6.534691a241a217a1 <= 5.39
s241 - s218 + 6.557547a241a218a2 <= 5.39
s69 - s17 + 6.535422a69a17a1 <= 5.41
s69 - s23 + 6.541657a69a23a3 <= 5.41
s69 - s67 + 6.562160a69a67a1 <= 5.41
s69 - s164 + 6.558983a69a164a1 <= 5.41
s69 - s217 + 6.529594a69a217a1 <= 5.41
s69 - s217 + 6.529594a69a217a3 <= 5.41
s50 - s17 + 6.919456a50a17a1 <= 5.42
s50 - s17 + 6.919456a50a17a2 <= 5.42
s50 - s67 + 6.930317a50a67a1 <= 5.42
s50 - s67 + 6.930317a50a67a2 <= 5.42
s50 - s164 + 6.912217a50a164a1 <= 5.42
s50 - s217 + 6.907543a50a217a1 <= 5.42
s50 - s218 + 6.921611a50a218a2 <= 5.42
s185 - s17 + 6.606026a185a17a1 <= 5.35
s185 - s17 + 6.606026a185a17a2 <= 5.35
s185 - s67 + 6.622255a185a67a1 <= 5.35
s185 - s67 + 6.622255a185a67a2 <= 5.35
s185 - s164 + 6.626669a185a164a1 <= 5.35
s185 - s217 + 6.606289a185a217a1 <= 5.35
s185 - s218 + 6.620602a185a218a2 <= 5.35
s225 - s17 + 6.959580a225a17a1 <= 5.44
s225 - s17 + 6.959580a225a17a2 <= 5.44
s225 - s67 + 6.969953a225a67a1 <= 5.44
s225 - s67 + 6.969953a225a67a2 <= 5.44
s225 - s164 + 6.952020a225a164a1 <= 5.44
s225 - s217 + 6.947872a225a217a1 <= 5.44
s225 - s218 + 6.961401a225a218a2 <= 5.44
s74 - s17 + 7.124567a74a17a1 <= 5.62
s74 - s17 + 7.124567a74a17a2 <= 5.62
s74 - s67 + 7.134441a74a67a1 <= 5.62
s74 - s67 + 7.134441a74a67a2 <= 5.62
s74 - s164 + 7.116661a74a164a1 <= 5.62
s74 - s217 + 7.113136a74a217a1 <= 5.62
s74 - s218 + 7.126028a74a218a2 <= 5.62
s2 - s17 + 6.243013a2a17a1 <= 4.74
s2 - s67 + 6.252250a2a67a1 <= 4.74
s2 - s164 + 6.234683a2a164a1 <= 4.74
s2 - s217 + 6.231890a2a217a1 <= 4.74
s43 - s17 + 6.955522a43a17a2 <= 5.45
s43 - s67 + 6.963858a43a67a2 <= 5.45
s43 - s218 + 6.955914a43a218a2 <= 5.45
s160 - s23 + 7.130870a160a23a3 <= 5.64
s160 - s217 + 7.125672a160a217a3 <= 5.64
s139 - s17 + 7.217803a139a17a1 <= 5.73
s139 - s17 + 7.217803a139a17a2 <= 5.73
s139 - s67 + 7.226847a139a67a1 <= 5.73
s139 - s67 + 7.226847a139a67a2 <= 5.73
s139 - s164 + 7.209335a139a164a1 <= 5.73
s139 - s217 + 7.206807a139a217a1 <= 5.73
s139 - s218 + 7.218674a139a218a2 <= 5.73
s124 - s17 + 7.287834a124a17a2 <= 5.77
s124 - s23 + 7.282145a124a23a3 <= 5.77
s124 - s67 + 7.294912a124a67a2 <= 5.77
s124 - s217 + 7.277758a124a217a3 <= 5.77
s124 - s218 + 7.287358a124a218a2 <= 5.77
s164 - s17 + 7.214037a164a17a1 <= 6.19
s164 - s67 + 7.211082a164a67a1 <= 6.19
s217 - s17 + 7.220000a217a17a1 <= 6.20
s217 - s67 + 7.254974a217a67a1 <= 6.20
s218 - s67 + 7.253333a218a67a2 <= 6.24

t132 - t23 + 1.143139b132b23b3 <= 0.00
t132 - t217 + 1.128755b132b217b3 <= 0.00
t16 - t17 + 1.156063b16b17b1 <= 0.00
t16 - t23 + 1.162344b16b23b3 <= 0.00
t16 - t67 + 1.181965b16b67b1 <= 0.00
t16 - t164 + 1.179505b16b164b1 <= 0.00
t16 - t217 + 1.150407b16b217b1 <= 0.00
t16 - t217 + 1.150407b16b217b3 <= 0.00
t35 - t23 + 1.131318b35b23b3 <= 0.00
t35 - t217 + 1.118134b35b217b3 <= 0.00
t241 - t17 + 1.152023b241b17b1 <= 0.00
t241 - t17 + 1.152023b241b17b2 <= 0.00
t241 - t67 + 1.176005b241b67b1 <= 0.00
t241 - t67 + 1.176005b241b67b2 <= 0.00
t241 - t164 + 1.174992b241b164b1 <= 0.00
t241 - t217 + 1.148024b241b217b1 <= 0.00
t241 - t218 + 1.170880b241b218b2 <= 0.00
t69 - t17 + 1.128755b69b17b1 <= 0.00
t69 - t23 + 1.134990b69b23b3 <= 0.00
t69 - t67 + 1.155492b69b67b1 <= 0.00
t69 - t164 + 1.152315b69b164b1 <= 0.00
t69 - t217 + 1.122927b69b217b1 <= 0.00
t69 - t217 + 1.122927b69b217b3 <= 0.00
t50 - t17 + 1.504028b50b17b1 <= 0.00
t50 - t17 + 1.504028b50b17b2 <= 0.00
t50 - t67 + 1.514889b50b67b1 <= 0.00
t50 - t67 + 1.514889b50b67b2 <= 0.00
t50 - t164 + 1.496790b50b164b1 <= 0.00
t50 - t217 + 1.492116b50b217b1 <= 0.00
t50 - t218 + 1.506184b50b218b2 <= 0.00
t185 - t17 + 1.253421b185b17b1 <= 0.00
t185 - t17 + 1.253421b185b17b2 <= 0.00
t185 - t67 + 1.269650b185b67b1 <= 0.00
t185 - t67 + 1.269650b185b67b2 <= 0.00
t185 - t164 + 1.274064b185b164b1 <= 0.00
t185 - t217 + 1.253684b185b217b1 <= 0.00
t185 - t218 + 1.267997b185b218b2 <= 0.00
t225 - t17 + 1.524002b225b17b1 <= 0.00
t225 - t17 + 1.524002b225b17b2 <= 0.00
t225 - t67 + 1.534374b225b67b1 <= 0.00
t225 - t67 + 1.534374b225b67b2 <= 0.00
t225 - t164 + 1.516441b225b164b1 <= 0.00
t225 - t217 + 1.512293b225b217b1 <= 0.00
t225 - t218 + 1.525822b225b218b2 <= 0.00
t74 - t17 + 1.501420b74b17b1 <= 0.00
t74 - t17 + 1.501420b74b17b2 <= 0.00
t74 - t67 + 1.511295b74b67b1 <= 0.00
t74 - t67 + 1.511295b74b67b2 <= 0.00
t74 - t164 + 1.493513b74b164b1 <= 0.00
t74 - t217 + 1.489989b74b217b1 <= 0.00
t74 - t218 + 1.502881b74b218b2 <= 0.00
t2 - t17 + 1.503013b2b17b1 <= 0.00
t2 - t67 + 1.512250b2b67b1 <= 0.00
t2 - t164 + 1.494683b2b164b1 <= 0.00
t2 - t217 + 1.491890b2b217b1 <= 0.00
t43 - t17 + 1.510338b43b17b2 <= 0.00
t43 - t67 + 1.518673b43b67b2 <= 0.00
t43 - t218 + 1.510729b43b218b2 <= 0.00
t160 - t23 + 1.489989b160b23b3 <= 0.00
t160 - t217 + 1.484791b160b217b3 <= 0.00
t139 - t17 + 1.484470b139b17b1 <= 0.00
t139 - t17 + 1.484470b139b17b2 <= 0.00
t139 - t67 + 1.493513b139b67b1 <= 0.00
t139 - t67 + 1.493513b139b67b2 <= 0.00
t139 - t164 + 1.476002b139b164b1 <= 0.00
t139 - t217 + 1.473474b139b217b1 <= 0.00
t139 - t218 + 1.485341b139b218b2 <= 0.00
t124 - t17 + 1.514501b124b17b2 <= 0.00
t124 - t23 + 1.508811b124b23b3 <= 0.00
t124 - t67 + 1.521579b124b67b2 <= 0.00
t124 - t217 + 1.504425b124b217b3 <= 0.00
t124 - t218 + 1.514025b124b218b2 <= 0.00
t164 - t17 + 7.214037b164b17b1 <= 6.19
t164 - t67 + 7.211082b164b67b1 <= 6.19
t217 - t17 + 7.220000b217b17b1 <= 6.20
t217 - t67 + 7.254974b217b67b1 <= 6.20
t218 - t67 + 7.253333b218b67b2 <= 6.24



x16x17x1 + x241x17x1 + x69x17x1 + x50x17x1 + x185x17x1 + x225x17x1 + x74x17x1 + x2x17x1 + x139x17x1 + x164x17x1 + x217x17x1 + x241x17x2 + x50x17x2 + x185x17x2 + x225x17x2 + x74x17x2 + x43x17x2 + x139x17x2 + x124x17x2 

- 2w17 <= 0

x132x23x3 + x16x23x3 + x35x23x3 + x69x23x3 + x160x23x3 + x124x23x3 

- 2w23 <= 0

x16x67x1 + x241x67x1 + x69x67x1 + x50x67x1 + x185x67x1 + x225x67x1 + x74x67x1 + x2x67x1 + x139x67x1 + x164x67x1 + x217x67x1 + x241x67x2 + x50x67x2 + x185x67x2 + x225x67x2 + x74x67x2 + x43x67x2 + x139x67x2 + x124x67x2 + x218x67x2 

- 2w67 <= 0

x16x164x1 + x241x164x1 + x69x164x1 + x50x164x1 + x185x164x1 + x225x164x1 + x74x164x1 + x2x164x1 + x139x164x1 
- x164x17x1 - x164x67x1 
- 2w164 <= 0

x16x217x1 + x241x217x1 + x69x217x1 + x50x217x1 + x185x217x1 + x225x217x1 + x74x217x1 + x2x217x1 + x139x217x1 + x132x217x3 + x16x217x3 + x35x217x3 + x69x217x3 + x160x217x3 + x124x217x3 
- x217x17x1 - x217x67x1 
- 2w217 <= 0

x241x218x2 + x50x218x2 + x185x218x2 + x225x218x2 + x74x218x2 + x43x218x2 + x139x218x2 + x124x218x2 
- x218x67x2 
- 2w218 <= 0

x16x17x1 + x241x17x1 + x69x17x1 + x50x17x1 + x185x17x1 + x225x17x1 + x74x17x1 + x2x17x1 + x139x17x1 + x164x17x1 + x217x17x1 + x241x17x2 + x50x17x2 + x185x17x2 + x225x17x2 + x74x17x2 + x43x17x2 + x139x17x2 + x124x17x2 

- w17 >= 0

x132x23x3 + x16x23x3 + x35x23x3 + x69x23x3 + x160x23x3 + x124x23x3 

- w23 >= 0

x16x67x1 + x241x67x1 + x69x67x1 + x50x67x1 + x185x67x1 + x225x67x1 + x74x67x1 + x2x67x1 + x139x67x1 + x164x67x1 + x217x67x1 + x241x67x2 + x50x67x2 + x185x67x2 + x225x67x2 + x74x67x2 + x43x67x2 + x139x67x2 + x124x67x2 + x218x67x2 

- w67 >= 0

x16x164x1 + x241x164x1 + x69x164x1 + x50x164x1 + x185x164x1 + x225x164x1 + x74x164x1 + x2x164x1 + x139x164x1 
- x164x17x1 - x164x67x1 
- w164 >= 0

x16x217x1 + x241x217x1 + x69x217x1 + x50x217x1 + x185x217x1 + x225x217x1 + x74x217x1 + x2x217x1 + x139x217x1 + x132x217x3 + x16x217x3 + x35x217x3 + x69x217x3 + x160x217x3 + x124x217x3 
- x217x17x1 - x217x67x1 
- w217 >= 0

x241x218x2 + x50x218x2 + x185x218x2 + x225x218x2 + x74x218x2 + x43x218x2 + x139x218x2 + x124x218x2 
- x218x67x2 
- w218 >= 0

s132 - t132 + 5.08w132 <= 5.08
s16 - t16 + 5.08w16 <= 5.08
s35 - t35 + 5.31w35 <= 5.31
s241 - t241 + 5.39w241 <= 5.39
s69 - t69 + 5.41w69 <= 5.41
s50 - t50 + 5.42w50 <= 5.42
s185 - t185 + 5.35w185 <= 5.35
s225 - t225 + 5.44w225 <= 5.44
s74 - t74 + 5.62w74 <= 5.62
s2 - t2 + 4.74w2 <= 4.74
s43 - t43 + 5.45w43 <= 5.45
s160 - t160 + 5.64w160 <= 5.64
s139 - t139 + 5.73w139 <= 5.73
s124 - t124 + 5.77w124 <= 5.77
s17 - t17 + 6.26w17 <= 6.26
s23 - t23 + 6.22w23 <= 6.22
s67 - t67 + 6.28w67 <= 6.28
s164 - t164 + 6.19w164 <= 6.19
s217 - t217 + 6.20w217 <= 6.20
s218 - t218 + 6.24w218 <= 6.24
s132 - u132 + 5.08w132 <= 5.08
s16 - u16 + 5.08w16 <= 5.08
s35 - u35 + 5.31w35 <= 5.31
s241 - u241 + 5.39w241 <= 5.39
s69 - u69 + 5.41w69 <= 5.41
s50 - u50 + 5.42w50 <= 5.42
s185 - u185 + 5.35w185 <= 5.35
s225 - u225 + 5.44w225 <= 5.44
s74 - u74 + 5.62w74 <= 5.62
s2 - u2 + 4.74w2 <= 4.74
s43 - u43 + 5.45w43 <= 5.45
s160 - u160 + 5.64w160 <= 5.64
s139 - u139 + 5.73w139 <= 5.73
s124 - u124 + 5.77w124 <= 5.77
s17 - u17 + 6.26w17 <= 6.26
s23 - u23 + 6.22w23 <= 6.22
s67 - u67 + 6.28w67 <= 6.28
s164 - u164 + 6.19w164 <= 6.19
s217 - u217 + 6.20w217 <= 6.20
s218 - u218 + 6.24w218 <= 6.24
s132 - r132 + 5.08w132 <= 5.08
s16 - r16 + 5.08w16 <= 5.08
s35 - r35 + 5.31w35 <= 5.31
s241 - r241 + 5.39w241 <= 5.39
s69 - r69 + 5.41w69 <= 5.41
s50 - r50 + 5.42w50 <= 5.42
s185 - r185 + 5.35w185 <= 5.35
s225 - r225 + 5.44w225 <= 5.44
s74 - r74 + 5.62w74 <= 5.62
s2 - r2 + 4.74w2 <= 4.74
s43 - r43 + 5.45w43 <= 5.45
s160 - r160 + 5.64w160 <= 5.64
s139 - r139 + 5.73w139 <= 5.73
s124 - r124 + 5.77w124 <= 5.77
s17 - r17 + 6.26w17 <= 6.26
s23 - r23 + 6.22w23 <= 6.22
s67 - r67 + 6.28w67 <= 6.28
s164 - r164 + 6.19w164 <= 6.19
s217 - r217 + 6.20w217 <= 6.20
s218 - r218 + 6.24w218 <= 6.24

s132 - t132 - 0.00w132 >= -0.00
s16 - t16 - 0.00w16 >= -0.00
s35 - t35 - 0.00w35 >= -0.00
s241 - t241 - 0.00w241 >= -0.00
s69 - t69 - 0.00w69 >= -0.00
s50 - t50 - 0.00w50 >= -0.00
s185 - t185 - 0.00w185 >= -0.00
s225 - t225 - 0.00w225 >= -0.00
s74 - t74 - 0.00w74 >= -0.00
s2 - t2 - 0.00w2 >= -0.00
s43 - t43 - 0.00w43 >= -0.00
s160 - t160 - 0.00w160 >= -0.00
s139 - t139 - 0.00w139 >= -0.00
s124 - t124 - 0.00w124 >= -0.00
s17 - t17 - 6.26w17 >= -6.26
s23 - t23 - 6.22w23 >= -6.22
s67 - t67 - 6.28w67 >= -6.28
s164 - t164 - 6.19w164 >= -6.19
s217 - t217 - 6.20w217 >= -6.20
s218 - t218 - 6.24w218 >= -6.24


s132 - u132 - 0.00w132 >= -0.00
s16 - u16 - 0.00w16 >= -0.00
s35 - u35 - 0.00w35 >= -0.00
s241 - u241 - 0.00w241 >= -0.00
s69 - u69 - 0.00w69 >= -0.00
s50 - u50 - 0.00w50 >= -0.00
s185 - u185 - 0.00w185 >= -0.00
s225 - u225 - 0.00w225 >= -0.00
s74 - u74 - 0.00w74 >= -0.00
s2 - u2 - 0.00w2 >= -0.00
s43 - u43 - 0.00w43 >= -0.00
s160 - u160 - 0.00w160 >= -0.00
s139 - u139 - 0.00w139 >= -0.00
s124 - u124 - 0.00w124 >= -0.00
s17 - u17 - 20.00w17 >= -20.00
s23 - u23 - 20.00w23 >= -20.00
s67 - u67 - 20.00w67 >= -20.00
s164 - u164 - 20.00w164 >= -20.00
s217 - u217 - 20.00w217 >= -20.00
s218 - u218 - 20.00w218 >= -20.00


s132 - r132 - 0.00w132 >= -0.00
s16 - r16 - 0.00w16 >= -0.00
s35 - r35 - 0.00w35 >= -0.00
s241 - r241 - 0.00w241 >= -0.00
s69 - r69 - 0.00w69 >= -0.00
s50 - r50 - 0.00w50 >= -0.00
s185 - r185 - 0.00w185 >= -0.00
s225 - r225 - 0.00w225 >= -0.00
s74 - r74 - 0.00w74 >= -0.00
s2 - r2 - 0.00w2 >= -0.00
s43 - r43 - 0.00w43 >= -0.00
s160 - r160 - 0.00w160 >= -0.00
s139 - r139 - 0.00w139 >= -0.00
s124 - r124 - 0.00w124 >= -0.00
s17 - r17 - 20.00w17 >= -20.00
s23 - r23 - 20.00w23 >= -20.00
s67 - r67 - 20.00w67 >= -20.00
s164 - r164 - 20.00w164 >= -20.00
s217 - r217 - 20.00w217 >= -20.00
s218 - r218 - 20.00w218 >= -20.00


s17 + 6.26a16a17a1 <= 12.26
s17 + 6.26a241a17a1 <= 12.26
s17 + 6.26a241a17a2 <= 12.26
s17 + 6.26a69a17a1 <= 12.26
s17 + 6.26a50a17a1 <= 12.26
s17 + 6.26a50a17a2 <= 12.26
s17 + 6.26a185a17a1 <= 12.26
s17 + 6.26a185a17a2 <= 12.26
s17 + 6.26a225a17a1 <= 12.26
s17 + 6.26a225a17a2 <= 12.26
s17 + 6.26a74a17a1 <= 12.26
s17 + 6.26a74a17a2 <= 12.26
s17 + 6.26a2a17a1 <= 12.26
s17 + 6.26a43a17a2 <= 12.26
s17 + 6.26a139a17a1 <= 12.26
s17 + 6.26a139a17a2 <= 12.26
s17 + 6.26a124a17a2 <= 12.26
s17 + 6.26a164a17a1 <= 12.26
s17 + 6.26a217a17a1 <= 12.26
s23 + 6.22a132a23a3 <= 12.22
s23 + 6.22a16a23a3 <= 12.22
s23 + 6.22a35a23a3 <= 12.22
s23 + 6.22a69a23a3 <= 12.22
s23 + 6.22a160a23a3 <= 12.22
s23 + 6.22a124a23a3 <= 12.22
s67 + 6.28a16a67a1 <= 12.28
s67 + 6.28a241a67a1 <= 12.28
s67 + 6.28a241a67a2 <= 12.28
s67 + 6.28a69a67a1 <= 12.28
s67 + 6.28a50a67a1 <= 12.28
s67 + 6.28a50a67a2 <= 12.28
s67 + 6.28a185a67a1 <= 12.28
s67 + 6.28a185a67a2 <= 12.28
s67 + 6.28a225a67a1 <= 12.28
s67 + 6.28a225a67a2 <= 12.28
s67 + 6.28a74a67a1 <= 12.28
s67 + 6.28a74a67a2 <= 12.28
s67 + 6.28a2a67a1 <= 12.28
s67 + 6.28a43a67a2 <= 12.28
s67 + 6.28a139a67a1 <= 12.28
s67 + 6.28a139a67a2 <= 12.28
s67 + 6.28a124a67a2 <= 12.28
s67 + 6.28a164a67a1 <= 12.28
s67 + 6.28a217a67a1 <= 12.28
s67 + 6.28a218a67a2 <= 12.28
s164 + 6.19a16a164a1 <= 12.19
s164 + 6.19a241a164a1 <= 12.19
s164 + 6.19a69a164a1 <= 12.19
s164 + 6.19a50a164a1 <= 12.19
s164 + 6.19a185a164a1 <= 12.19
s164 + 6.19a225a164a1 <= 12.19
s164 + 6.19a74a164a1 <= 12.19
s164 + 6.19a2a164a1 <= 12.19
s164 + 6.19a139a164a1 <= 12.19
s217 + 6.20a132a217a3 <= 12.20
s217 + 6.20a16a217a1 <= 12.20
s217 + 6.20a16a217a3 <= 12.20
s217 + 6.20a35a217a3 <= 12.20
s217 + 6.20a241a217a1 <= 12.20
s217 + 6.20a69a217a1 <= 12.20
s217 + 6.20a69a217a3 <= 12.20
s217 + 6.20a50a217a1 <= 12.20
s217 + 6.20a185a217a1 <= 12.20
s217 + 6.20a225a217a1 <= 12.20
s217 + 6.20a74a217a1 <= 12.20
s217 + 6.20a2a217a1 <= 12.20
s217 + 6.20a160a217a3 <= 12.20
s217 + 6.20a139a217a1 <= 12.20
s217 + 6.20a124a217a3 <= 12.20
s218 + 6.24a241a218a2 <= 12.24
s218 + 6.24a50a218a2 <= 12.24
s218 + 6.24a185a218a2 <= 12.24
s218 + 6.24a225a218a2 <= 12.24
s218 + 6.24a74a218a2 <= 12.24
s218 + 6.24a43a218a2 <= 12.24
s218 + 6.24a139a218a2 <= 12.24
s218 + 6.24a124a218a2 <= 12.24




a16a17a1 + b16b17b1 <= 1
a241a17a1 + b241b17b1 <= 1
a241a17a2 + b241b17b2 <= 1
a69a17a1 + b69b17b1 <= 1
a50a17a1 + b50b17b1 <= 1
a50a17a2 + b50b17b2 <= 1
a185a17a1 + b185b17b1 <= 1
a185a17a2 + b185b17b2 <= 1
a225a17a1 + b225b17b1 <= 1
a225a17a2 + b225b17b2 <= 1
a74a17a1 + b74b17b1 <= 1
a74a17a2 + b74b17b2 <= 1
a2a17a1 + b2b17b1 <= 1
a43a17a2 + b43b17b2 <= 1
a139a17a1 + b139b17b1 <= 1
a139a17a2 + b139b17b2 <= 1
a124a17a2 + b124b17b2 <= 1
a164a17a1 + b164b17b1 <= 1
a217a17a1 + b217b17b1 <= 1
a132a23a3 + b132b23b3 <= 1
a16a23a3 + b16b23b3 <= 1
a35a23a3 + b35b23b3 <= 1
a69a23a3 + b69b23b3 <= 1
a160a23a3 + b160b23b3 <= 1
a124a23a3 + b124b23b3 <= 1
a16a67a1 + b16b67b1 <= 1
a241a67a1 + b241b67b1 <= 1
a241a67a2 + b241b67b2 <= 1
a69a67a1 + b69b67b1 <= 1
a50a67a1 + b50b67b1 <= 1
a50a67a2 + b50b67b2 <= 1
a185a67a1 + b185b67b1 <= 1
a185a67a2 + b185b67b2 <= 1
a225a67a1 + b225b67b1 <= 1
a225a67a2 + b225b67b2 <= 1
a74a67a1 + b74b67b1 <= 1
a74a67a2 + b74b67b2 <= 1
a2a67a1 + b2b67b1 <= 1
a43a67a2 + b43b67b2 <= 1
a139a67a1 + b139b67b1 <= 1
a139a67a2 + b139b67b2 <= 1
a124a67a2 + b124b67b2 <= 1
a164a67a1 + b164b67b1 <= 1
a217a67a1 + b217b67b1 <= 1
a218a67a2 + b218b67b2 <= 1
a16a164a1 + b16b164b1 <= 1
a241a164a1 + b241b164b1 <= 1
a69a164a1 + b69b164b1 <= 1
a50a164a1 + b50b164b1 <= 1
a185a164a1 + b185b164b1 <= 1
a225a164a1 + b225b164b1 <= 1
a74a164a1 + b74b164b1 <= 1
a2a164a1 + b2b164b1 <= 1
a139a164a1 + b139b164b1 <= 1
a132a217a3 + b132b217b3 <= 1
a16a217a1 + b16b217b1 <= 1
a16a217a3 + b16b217b3 <= 1
a35a217a3 + b35b217b3 <= 1
a241a217a1 + b241b217b1 <= 1
a69a217a1 + b69b217b1 <= 1
a69a217a3 + b69b217b3 <= 1
a50a217a1 + b50b217b1 <= 1
a185a217a1 + b185b217b1 <= 1
a225a217a1 + b225b217b1 <= 1
a74a217a1 + b74b217b1 <= 1
a2a217a1 + b2b217b1 <= 1
a160a217a3 + b160b217b3 <= 1
a139a217a1 + b139b217b1 <= 1
a124a217a3 + b124b217b3 <= 1
a241a218a2 + b241b218b2 <= 1
a50a218a2 + b50b218b2 <= 1
a185a218a2 + b185b218b2 <= 1
a225a218a2 + b225b218b2 <= 1
a74a218a2 + b74b218b2 <= 1
a43a218a2 + b43b218b2 <= 1
a139a218a2 + b139b218b2 <= 1
a124a218a2 + b124b218b2 <= 1


a16a17a1 + c16c17c1 <= 1
a241a17a1 + c241c17c1 <= 1
a241a17a2 + c241c17c2 <= 1
a69a17a1 + c69c17c1 <= 1
a50a17a1 + c50c17c1 <= 1
a50a17a2 + c50c17c2 <= 1
a185a17a1 + c185c17c1 <= 1
a185a17a2 + c185c17c2 <= 1
a225a17a1 + c225c17c1 <= 1
a225a17a2 + c225c17c2 <= 1
a74a17a1 + c74c17c1 <= 1
a74a17a2 + c74c17c2 <= 1
a2a17a1 + c2c17c1 <= 1
a43a17a2 + c43c17c2 <= 1
a139a17a1 + c139c17c1 <= 1
a139a17a2 + c139c17c2 <= 1
a124a17a2 + c124c17c2 <= 1
a164a17a1 + c164c17c1 <= 1
a217a17a1 + c217c17c1 <= 1
a132a23a3 + c132c23c3 <= 1
a16a23a3 + c16c23c3 <= 1
a35a23a3 + c35c23c3 <= 1
a69a23a3 + c69c23c3 <= 1
a160a23a3 + c160c23c3 <= 1
a124a23a3 + c124c23c3 <= 1
a16a67a1 + c16c67c1 <= 1
a241a67a1 + c241c67c1 <= 1
a241a67a2 + c241c67c2 <= 1
a69a67a1 + c69c67c1 <= 1
a50a67a1 + c50c67c1 <= 1
a50a67a2 + c50c67c2 <= 1
a185a67a1 + c185c67c1 <= 1
a185a67a2 + c185c67c2 <= 1
a225a67a1 + c225c67c1 <= 1
a225a67a2 + c225c67c2 <= 1
a74a67a1 + c74c67c1 <= 1
a74a67a2 + c74c67c2 <= 1
a2a67a1 + c2c67c1 <= 1
a43a67a2 + c43c67c2 <= 1
a139a67a1 + c139c67c1 <= 1
a139a67a2 + c139c67c2 <= 1
a124a67a2 + c124c67c2 <= 1
a164a67a1 + c164c67c1 <= 1
a217a67a1 + c217c67c1 <= 1
a218a67a2 + c218c67c2 <= 1
a16a164a1 + c16c164c1 <= 1
a241a164a1 + c241c164c1 <= 1
a69a164a1 + c69c164c1 <= 1
a50a164a1 + c50c164c1 <= 1
a185a164a1 + c185c164c1 <= 1
a225a164a1 + c225c164c1 <= 1
a74a164a1 + c74c164c1 <= 1
a2a164a1 + c2c164c1 <= 1
a139a164a1 + c139c164c1 <= 1
a132a217a3 + c132c217c3 <= 1
a16a217a1 + c16c217c1 <= 1
a16a217a3 + c16c217c3 <= 1
a35a217a3 + c35c217c3 <= 1
a241a217a1 + c241c217c1 <= 1
a69a217a1 + c69c217c1 <= 1
a69a217a3 + c69c217c3 <= 1
a50a217a1 + c50c217c1 <= 1
a185a217a1 + c185c217c1 <= 1
a225a217a1 + c225c217c1 <= 1
a74a217a1 + c74c217c1 <= 1
a2a217a1 + c2c217c1 <= 1
a160a217a3 + c160c217c3 <= 1
a139a217a1 + c139c217c1 <= 1
a124a217a3 + c124c217c3 <= 1
a241a218a2 + c241c218c2 <= 1
a50a218a2 + c50c218c2 <= 1
a185a218a2 + c185c218c2 <= 1
a225a218a2 + c225c218c2 <= 1
a74a218a2 + c74c218c2 <= 1
a43a218a2 + c43c218c2 <= 1
a139a218a2 + c139c218c2 <= 1
a124a218a2 + c124c218c2 <= 1


a16a17a1 + d16d17d1 <= 1
a241a17a1 + d241d17d1 <= 1
a241a17a2 + d241d17d2 <= 1
a69a17a1 + d69d17d1 <= 1
a50a17a1 + d50d17d1 <= 1
a50a17a2 + d50d17d2 <= 1
a185a17a1 + d185d17d1 <= 1
a185a17a2 + d185d17d2 <= 1
a225a17a1 + d225d17d1 <= 1
a225a17a2 + d225d17d2 <= 1
a74a17a1 + d74d17d1 <= 1
a74a17a2 + d74d17d2 <= 1
a2a17a1 + d2d17d1 <= 1
a43a17a2 + d43d17d2 <= 1
a139a17a1 + d139d17d1 <= 1
a139a17a2 + d139d17d2 <= 1
a124a17a2 + d124d17d2 <= 1
a164a17a1 + d164d17d1 <= 1
a217a17a1 + d217d17d1 <= 1
a132a23a3 + d132d23d3 <= 1
a16a23a3 + d16d23d3 <= 1
a35a23a3 + d35d23d3 <= 1
a69a23a3 + d69d23d3 <= 1
a160a23a3 + d160d23d3 <= 1
a124a23a3 + d124d23d3 <= 1
a16a67a1 + d16d67d1 <= 1
a241a67a1 + d241d67d1 <= 1
a241a67a2 + d241d67d2 <= 1
a69a67a1 + d69d67d1 <= 1
a50a67a1 + d50d67d1 <= 1
a50a67a2 + d50d67d2 <= 1
a185a67a1 + d185d67d1 <= 1
a185a67a2 + d185d67d2 <= 1
a225a67a1 + d225d67d1 <= 1
a225a67a2 + d225d67d2 <= 1
a74a67a1 + d74d67d1 <= 1
a74a67a2 + d74d67d2 <= 1
a2a67a1 + d2d67d1 <= 1
a43a67a2 + d43d67d2 <= 1
a139a67a1 + d139d67d1 <= 1
a139a67a2 + d139d67d2 <= 1
a124a67a2 + d124d67d2 <= 1
a164a67a1 + d164d67d1 <= 1
a217a67a1 + d217d67d1 <= 1
a218a67a2 + d218d67d2 <= 1
a16a164a1 + d16d164d1 <= 1
a241a164a1 + d241d164d1 <= 1
a69a164a1 + d69d164d1 <= 1
a50a164a1 + d50d164d1 <= 1
a185a164a1 + d185d164d1 <= 1
a225a164a1 + d225d164d1 <= 1
a74a164a1 + d74d164d1 <= 1
a2a164a1 + d2d164d1 <= 1
a139a164a1 + d139d164d1 <= 1
a132a217a3 + d132d217d3 <= 1
a16a217a1 + d16d217d1 <= 1
a16a217a3 + d16d217d3 <= 1
a35a217a3 + d35d217d3 <= 1
a241a217a1 + d241d217d1 <= 1
a69a217a1 + d69d217d1 <= 1
a69a217a3 + d69d217d3 <= 1
a50a217a1 + d50d217d1 <= 1
a185a217a1 + d185d217d1 <= 1
a225a217a1 + d225d217d1 <= 1
a74a217a1 + d74d217d1 <= 1
a2a217a1 + d2d217d1 <= 1
a160a217a3 + d160d217d3 <= 1
a139a217a1 + d139d217d1 <= 1
a124a217a3 + d124d217d3 <= 1
a241a218a2 + d241d218d2 <= 1
a50a218a2 + d50d218d2 <= 1
a185a218a2 + d185d218d2 <= 1
a225a218a2 + d225d218d2 <= 1
a74a218a2 + d74d218d2 <= 1
a43a218a2 + d43d218d2 <= 1
a139a218a2 + d139d218d2 <= 1
a124a218a2 + d124d218d2 <= 1

x132x23x3 - 2a132a23a3 <= 0
x132x217x3 - 1a132a217a3 <= 0
x16x17x1 - 1a16a17a1 <= 0
x16x23x3 - 2a16a23a3 <= 0
x16x67x1 - 1a16a67a1 <= 0
x16x164x1 - 2a16a164a1 <= 0
x16x217x1 - 1a16a217a1 <= 0
x16x217x3 - 1a16a217a3 <= 0
x35x23x3 - 2a35a23a3 <= 0
x35x217x3 - 1a35a217a3 <= 0
x241x17x1 - 1a241a17a1 <= 0
x241x17x2 - 1a241a17a2 <= 0
x241x67x1 - 1a241a67a1 <= 0
x241x67x2 - 1a241a67a2 <= 0
x241x164x1 - 2a241a164a1 <= 0
x241x217x1 - 1a241a217a1 <= 0
x241x218x2 - 2a241a218a2 <= 0
x69x17x1 - 1a69a17a1 <= 0
x69x23x3 - 2a69a23a3 <= 0
x69x67x1 - 1a69a67a1 <= 0
x69x164x1 - 2a69a164a1 <= 0
x69x217x1 - 1a69a217a1 <= 0
x69x217x3 - 1a69a217a3 <= 0
x50x17x1 - 1a50a17a1 <= 0
x50x17x2 - 1a50a17a2 <= 0
x50x67x1 - 1a50a67a1 <= 0
x50x67x2 - 1a50a67a2 <= 0
x50x164x1 - 2a50a164a1 <= 0
x50x217x1 - 1a50a217a1 <= 0
x50x218x2 - 2a50a218a2 <= 0
x185x17x1 - 1a185a17a1 <= 0
x185x17x2 - 1a185a17a2 <= 0
x185x67x1 - 1a185a67a1 <= 0
x185x67x2 - 1a185a67a2 <= 0
x185x164x1 - 2a185a164a1 <= 0
x185x217x1 - 1a185a217a1 <= 0
x185x218x2 - 2a185a218a2 <= 0
x225x17x1 - 1a225a17a1 <= 0
x225x17x2 - 1a225a17a2 <= 0
x225x67x1 - 1a225a67a1 <= 0
x225x67x2 - 1a225a67a2 <= 0
x225x164x1 - 2a225a164a1 <= 0
x225x217x1 - 1a225a217a1 <= 0
x225x218x2 - 2a225a218a2 <= 0
x74x17x1 - 1a74a17a1 <= 0
x74x17x2 - 1a74a17a2 <= 0
x74x67x1 - 1a74a67a1 <= 0
x74x67x2 - 1a74a67a2 <= 0
x74x164x1 - 2a74a164a1 <= 0
x74x217x1 - 1a74a217a1 <= 0
x74x218x2 - 2a74a218a2 <= 0
x2x17x1 - 1a2a17a1 <= 0
x2x67x1 - 1a2a67a1 <= 0
x2x164x1 - 2a2a164a1 <= 0
x2x217x1 - 1a2a217a1 <= 0
x43x17x2 - 1a43a17a2 <= 0
x43x67x2 - 1a43a67a2 <= 0
x43x218x2 - 2a43a218a2 <= 0
x160x23x3 - 2a160a23a3 <= 0
x160x217x3 - 1a160a217a3 <= 0
x139x17x1 - 1a139a17a1 <= 0
x139x17x2 - 1a139a17a2 <= 0
x139x67x1 - 1a139a67a1 <= 0
x139x67x2 - 1a139a67a2 <= 0
x139x164x1 - 2a139a164a1 <= 0
x139x217x1 - 1a139a217a1 <= 0
x139x218x2 - 2a139a218a2 <= 0
x124x17x2 - 1a124a17a2 <= 0
x124x23x3 - 2a124a23a3 <= 0
x124x67x2 - 1a124a67a2 <= 0
x124x217x3 - 1a124a217a3 <= 0
x124x218x2 - 2a124a218a2 <= 0
x164x17x1 - 1a164a17a1 <= 0
x164x67x1 - 1a164a67a1 <= 0
x217x17x1 - 1a217a17a1 <= 0
x217x67x1 - 1a217a67a1 <= 0
x218x67x2 - 1a218a67a2 <= 0
y132y23y3 - 2b132b23b3 <= 0
y132y217y3 - 1b132b217b3 <= 0
y16y17y1 - 1b16b17b1 <= 0
y16y23y3 - 2b16b23b3 <= 0
y16y67y1 - 1b16b67b1 <= 0
y16y164y1 - 2b16b164b1 <= 0
y16y217y1 - 1b16b217b1 <= 0
y16y217y3 - 1b16b217b3 <= 0
y35y23y3 - 2b35b23b3 <= 0
y35y217y3 - 1b35b217b3 <= 0
y241y17y1 - 1b241b17b1 <= 0
y241y17y2 - 1b241b17b2 <= 0
y241y67y1 - 1b241b67b1 <= 0
y241y67y2 - 1b241b67b2 <= 0
y241y164y1 - 2b241b164b1 <= 0
y241y217y1 - 1b241b217b1 <= 0
y241y218y2 - 2b241b218b2 <= 0
y69y17y1 - 1b69b17b1 <= 0
y69y23y3 - 2b69b23b3 <= 0
y69y67y1 - 1b69b67b1 <= 0
y69y164y1 - 2b69b164b1 <= 0
y69y217y1 - 1b69b217b1 <= 0
y69y217y3 - 1b69b217b3 <= 0
y50y17y1 - 1b50b17b1 <= 0
y50y17y2 - 1b50b17b2 <= 0
y50y67y1 - 1b50b67b1 <= 0
y50y67y2 - 1b50b67b2 <= 0
y50y164y1 - 2b50b164b1 <= 0
y50y217y1 - 1b50b217b1 <= 0
y50y218y2 - 2b50b218b2 <= 0
y185y17y1 - 1b185b17b1 <= 0
y185y17y2 - 1b185b17b2 <= 0
y185y67y1 - 1b185b67b1 <= 0
y185y67y2 - 1b185b67b2 <= 0
y185y164y1 - 2b185b164b1 <= 0
y185y217y1 - 1b185b217b1 <= 0
y185y218y2 - 2b185b218b2 <= 0
y225y17y1 - 1b225b17b1 <= 0
y225y17y2 - 1b225b17b2 <= 0
y225y67y1 - 1b225b67b1 <= 0
y225y67y2 - 1b225b67b2 <= 0
y225y164y1 - 2b225b164b1 <= 0
y225y217y1 - 1b225b217b1 <= 0
y225y218y2 - 2b225b218b2 <= 0
y74y17y1 - 1b74b17b1 <= 0
y74y17y2 - 1b74b17b2 <= 0
y74y67y1 - 1b74b67b1 <= 0
y74y67y2 - 1b74b67b2 <= 0
y74y164y1 - 2b74b164b1 <= 0
y74y217y1 - 1b74b217b1 <= 0
y74y218y2 - 2b74b218b2 <= 0
y2y17y1 - 1b2b17b1 <= 0
y2y67y1 - 1b2b67b1 <= 0
y2y164y1 - 2b2b164b1 <= 0
y2y217y1 - 1b2b217b1 <= 0
y43y17y2 - 1b43b17b2 <= 0
y43y67y2 - 1b43b67b2 <= 0
y43y218y2 - 2b43b218b2 <= 0
y160y23y3 - 2b160b23b3 <= 0
y160y217y3 - 1b160b217b3 <= 0
y139y17y1 - 1b139b17b1 <= 0
y139y17y2 - 1b139b17b2 <= 0
y139y67y1 - 1b139b67b1 <= 0
y139y67y2 - 1b139b67b2 <= 0
y139y164y1 - 2b139b164b1 <= 0
y139y217y1 - 1b139b217b1 <= 0
y139y218y2 - 2b139b218b2 <= 0
y124y17y2 - 1b124b17b2 <= 0
y124y23y3 - 2b124b23b3 <= 0
y124y67y2 - 1b124b67b2 <= 0
y124y217y3 - 1b124b217b3 <= 0
y124y218y2 - 2b124b218b2 <= 0
y164y17y1 - 1b164b17b1 <= 0
y164y67y1 - 1b164b67b1 <= 0
y217y17y1 - 1b217b17b1 <= 0
y217y67y1 - 1b217b67b1 <= 0
y218y67y2 - 1b218b67b2 <= 0

Bounds
s132 = 5.083713
s16 = 5.080792
s35 = 5.311632
s241 = 5.386667
s69 = 5.406667
s50 = 5.415427
s185 = 5.352605
s225 = 5.435579
s74 = 5.623147
s2 = 4.740000
s43 = 5.445184
s160 = 5.640881
s139 = 5.733333
s124 = 5.773333
5.26 <= s17 <= 6.26
5.22 <= s23 <= 6.22
5.28 <= s67 <= 6.28
5.19 <= s164 <= 6.19
5.20 <= s217 <= 6.20
5.24 <= s218 <= 6.24

5.26 <= t17 <= 6.26
5.22 <= t23 <= 6.22
5.28 <= t67 <= 6.28
5.19 <= t164 <= 6.19
5.20 <= t217 <= 6.20
5.24 <= t218 <= 6.24

0.00 <= u17 <= 20.00
0.00 <= u23 <= 20.00
0.00 <= u67 <= 20.00
0.00 <= u164 <= 20.00
0.00 <= u217 <= 20.00
0.00 <= u218 <= 20.00

0.00 <= r17 <= 20.00
0.00 <= r23 <= 20.00
0.00 <= r67 <= 20.00
0.00 <= r164 <= 20.00
0.00 <= r217 <= 20.00
0.00 <= r218 <= 20.00

General
x132x23x3 x132x217x3 
x16x17x1 x16x23x3 x16x67x1 x16x164x1 x16x217x1 x16x217x3 
x35x23x3 x35x217x3 
x241x17x1 x241x17x2 x241x67x1 x241x67x2 x241x164x1 x241x217x1 x241x218x2 
x69x17x1 x69x23x3 x69x67x1 x69x164x1 x69x217x1 x69x217x3 
x50x17x1 x50x17x2 x50x67x1 x50x67x2 x50x164x1 x50x217x1 x50x218x2 
x185x17x1 x185x17x2 x185x67x1 x185x67x2 x185x164x1 x185x217x1 x185x218x2 
x225x17x1 x225x17x2 x225x67x1 x225x67x2 x225x164x1 x225x217x1 x225x218x2 
x74x17x1 x74x17x2 x74x67x1 x74x67x2 x74x164x1 x74x217x1 x74x218x2 
x2x17x1 x2x67x1 x2x164x1 x2x217x1 
x43x17x2 x43x67x2 x43x218x2 
x160x23x3 x160x217x3 
x139x17x1 x139x17x2 x139x67x1 x139x67x2 x139x164x1 x139x217x1 x139x218x2 
x124x17x2 x124x23x3 x124x67x2 x124x217x3 x124x218x2 
x164x17x1 x164x67x1 
x217x17x1 x217x67x1 
x218x67x2 

y132y23y3 y132y217y3 
y16y17y1 y16y23y3 y16y67y1 y16y164y1 y16y217y1 y16y217y3 
y35y23y3 y35y217y3 
y241y17y1 y241y17y2 y241y67y1 y241y67y2 y241y164y1 y241y217y1 y241y218y2 
y69y17y1 y69y23y3 y69y67y1 y69y164y1 y69y217y1 y69y217y3 
y50y17y1 y50y17y2 y50y67y1 y50y67y2 y50y164y1 y50y217y1 y50y218y2 
y185y17y1 y185y17y2 y185y67y1 y185y67y2 y185y164y1 y185y217y1 y185y218y2 
y225y17y1 y225y17y2 y225y67y1 y225y67y2 y225y164y1 y225y217y1 y225y218y2 
y74y17y1 y74y17y2 y74y67y1 y74y67y2 y74y164y1 y74y217y1 y74y218y2 
y2y17y1 y2y67y1 y2y164y1 y2y217y1 
y43y17y2 y43y67y2 y43y218y2 
y160y23y3 y160y217y3 
y139y17y1 y139y17y2 y139y67y1 y139y67y2 y139y164y1 y139y217y1 y139y218y2 
y124y17y2 y124y23y3 y124y67y2 y124y217y3 y124y218y2 
y164y17y1 y164y67y1 
y217y17y1 y217y67y1 
y218y67y2 



Binaries
X17 X23 X67 X164 X217 X218 
Y17 Y23 Y67 Y164 Y217 Y218 



w17 w23 w67 w164 w217 w218 

a132a23a3 a132a217a3 
a16a17a1 a16a23a3 a16a67a1 a16a164a1 a16a217a1 a16a217a3 
a35a23a3 a35a217a3 
a241a17a1 a241a17a2 a241a67a1 a241a67a2 a241a164a1 a241a217a1 a241a218a2 
a69a17a1 a69a23a3 a69a67a1 a69a164a1 a69a217a1 a69a217a3 
a50a17a1 a50a17a2 a50a67a1 a50a67a2 a50a164a1 a50a217a1 a50a218a2 
a185a17a1 a185a17a2 a185a67a1 a185a67a2 a185a164a1 a185a217a1 a185a218a2 
a225a17a1 a225a17a2 a225a67a1 a225a67a2 a225a164a1 a225a217a1 a225a218a2 
a74a17a1 a74a17a2 a74a67a1 a74a67a2 a74a164a1 a74a217a1 a74a218a2 
a2a17a1 a2a67a1 a2a164a1 a2a217a1 
a43a17a2 a43a67a2 a43a218a2 
a160a23a3 a160a217a3 
a139a17a1 a139a17a2 a139a67a1 a139a67a2 a139a164a1 a139a217a1 a139a218a2 
a124a17a2 a124a23a3 a124a67a2 a124a217a3 a124a218a2 
a164a17a1 a164a67a1 
a217a17a1 a217a67a1 
a218a67a2 

b132b23b3 b132b217b3 
b16b17b1 b16b23b3 b16b67b1 b16b164b1 b16b217b1 b16b217b3 
b35b23b3 b35b217b3 
b241b17b1 b241b17b2 b241b67b1 b241b67b2 b241b164b1 b241b217b1 b241b218b2 
b69b17b1 b69b23b3 b69b67b1 b69b164b1 b69b217b1 b69b217b3 
b50b17b1 b50b17b2 b50b67b1 b50b67b2 b50b164b1 b50b217b1 b50b218b2 
b185b17b1 b185b17b2 b185b67b1 b185b67b2 b185b164b1 b185b217b1 b185b218b2 
b225b17b1 b225b17b2 b225b67b1 b225b67b2 b225b164b1 b225b217b1 b225b218b2 
b74b17b1 b74b17b2 b74b67b1 b74b67b2 b74b164b1 b74b217b1 b74b218b2 
b2b17b1 b2b67b1 b2b164b1 b2b217b1 
b43b17b2 b43b67b2 b43b218b2 
b160b23b3 b160b217b3 
b139b17b1 b139b17b2 b139b67b1 b139b67b2 b139b164b1 b139b217b1 b139b218b2 
b124b17b2 b124b23b3 b124b67b2 b124b217b3 b124b218b2 
b164b17b1 b164b67b1 
b217b17b1 b217b67b1 
b218b67b2 



End